1615
31 73 33 92 54 22 79 91 94 75 62 36 61 25 17 47 3 77 57 60 98 9 42 70 56 23 6 48 30 90 12 96 29 67 69 76 19 10 68 95 81 66 37 87 63 72 82 38 52 71 8 34 28 4 83 50 27 65 26 43 32 15 93 14 21 74 97 44 45 85 13 89 55 88 46 24 2 35 16 59 58 49 80 40 84 11 7 39 5 51 1 78 99 53 41 20 86 64 18 
